20 64 
1 5 1
1 6 1
1 7 1
1 8 1
1 9 1
1 10 1
1 11 1
1 14 1
1 15 1
1 16 1
1 20 1
2 5 1
2 6 1
2 8 1
2 10 1
3 5 1
3 6 1
3 7 1
3 9 1
3 11 1
3 15 1
3 16 1
3 18 1
4 5 1
4 6 1
4 10 1
4 13 1
4 20 1
5 7 1
5 8 1
5 13 1
5 14 1
5 15 1
5 16 1
5 17 1
5 20 1
6 7 1
6 8 1
6 9 1
6 10 1
6 11 1
6 12 1
6 13 1
6 18 1
7 9 1
7 17 1
8 12 1
8 13 1
8 15 1
8 18 1
9 16 1
9 19 1
10 11 1
10 12 1
10 14 1
10 17 1
10 18 1
11 12 1
11 19 1
13 14 1
13 17 1
14 19 1
16 19 1
17 20 1
